n = 35;
k = 3;
roles = [
{m, d},
{m, d},
{d, g},
{f, m},
{f, g},
{m, g},
{f, g},
{f, m},
{d, g},
{d, f},
{d, f},
{f, m},
{d, m},
{m, f},
{f, m},
{g, d},
{f, d},
{g, d},
{d, f},
{m, f},
{d, f},
{f, g},
{m, g},
{d, m},
{f, m},
{g, f},
{d, m},
{m, f},
{g, d},
{f, d},
{g, f},
{m, g},
{g, d},
{d, f},
{d, f}
];
num_pairs = 1;
player1 = [15];
player2 = [30];
